Special k-points for band structure
50  ! intersections 
line-mode
reciprocal
    0.0000000000     0.0000000000     0.0000000000 1    GAMMA
    0.0000000000     0.5000000000     0.0000000000 1    X 


    0.0000000000     0.5000000000     0.0000000000 1    X 
    0.5000000000     0.5000000000     0.0000000000 1    M 


    0.5000000000     0.5000000000     0.0000000000 1    M 
    0.0000000000     0.0000000000     0.0000000000 1    GAMMA


    0.0000000000     0.0000000000     0.0000000000 1    GAMMA
    0.0000000000     0.0000000000     0.5000000000 1    Z 


    0.0000000000     0.0000000000     0.5000000000 1    Z 
    0.0000000000     0.5000000000     0.5000000000 1    R 


    0.0000000000     0.5000000000     0.5000000000 1    R 
    0.5000000000     0.5000000000     0.5000000000 1    A 


    0.5000000000     0.5000000000     0.5000000000 1    A 
    0.0000000000     0.0000000000     0.5000000000 1    Z 


    0.0000000000     0.5000000000     0.0000000000 1    X 
    0.0000000000     0.5000000000     0.5000000000 1    R 


    0.5000000000     0.5000000000     0.0000000000 1    M 
    0.5000000000     0.5000000000     0.5000000000 1    A 