Ti2 O4                                  
   1.00000000000000     
     4.6596578415330923    0.0000000000000000    0.0000000000000003
     0.0000000000000007    4.6596578415330923    0.0000000000000003
     0.0000000000000000    0.0000000000000000    2.9689967521223490
   Ti   O 
     2     4
Direct
  0.5000000000000000  0.5000000000000000  0.0000000000000000
  0.0000000000000000  0.0000000000000000  0.5000000000000000
  0.6953150559949748  0.6953150559949748  0.5000000000000000
  0.1953150559949748  0.8046849440050252  0.0000000000000000
  0.8046849440050252  0.1953150559949748  0.0000000000000000
  0.3046849440050252  0.3046849440050252  0.5000000000000000
 
  0.00000000E+00  0.00000000E+00  0.00000000E+00
  0.00000000E+00  0.00000000E+00  0.00000000E+00
  0.00000000E+00  0.00000000E+00  0.00000000E+00
  0.00000000E+00  0.00000000E+00  0.00000000E+00
  0.00000000E+00  0.00000000E+00  0.00000000E+00
  0.00000000E+00  0.00000000E+00  0.00000000E+00