Ba1 Ti1 O3                              
   1.00000000000000     
     4.0247159877187064    0.0000000000000000    0.0000000000000002
     0.0000000000000006    4.0247159877187064    0.0000000000000002
     0.0000000000000000    0.0000000000000000    4.0247159877187064
   Ba   Ti   O 
     1     1     3
Direct
  0.5000000000000000  0.5000000000000000  0.5000000000000000
  0.0000000000000000  0.0000000000000000  0.0000000000000000
  0.5000000000000000  0.0000000000000000  0.0000000000000000
  0.0000000000000000  0.5000000000000000  0.0000000000000000
  0.0000000000000000  0.0000000000000000  0.5000000000000000
 
  0.00000000E+00  0.00000000E+00  0.00000000E+00
  0.00000000E+00  0.00000000E+00  0.00000000E+00
  0.00000000E+00  0.00000000E+00  0.00000000E+00
  0.00000000E+00  0.00000000E+00  0.00000000E+00
  0.00000000E+00  0.00000000E+00  0.00000000E+00