Carbon diamond cubic                    
   3.57000000000000     
     0.0000000000000000    0.4894880774025701    0.4894880774025701
     0.4894880774025701    0.0000000000000000    0.4894880774025701
     0.4894880774025701    0.4894880774025701    0.0000000000000000
   C 
     2
Direct
  0.0000000000000000  0.0000000000000000  0.0000000000000000
  0.2500000000000000  0.2500000000000000  0.2500000000000000
 
  0.00000000E+00  0.00000000E+00  0.00000000E+00
  0.00000000E+00  0.00000000E+00  0.00000000E+00
