Si Diamond Cubic                        
   5.43000000000000     
     0.0000000000000000    0.5035485526961561    0.5035485526961561
     0.5035485526961561    0.0000000000000000    0.5035485526961561
     0.5035485526961561    0.5035485526961561    0.0000000000000000
   Si
     2
Direct
  0.0000000000000000  0.0000000000000000  0.0000000000000000
  0.2500000000000000  0.2500000000000000  0.2500000000000000
 
  0.00000000E+00  0.00000000E+00  0.00000000E+00
  0.00000000E+00  0.00000000E+00  0.00000000E+00
